(set-info :smt-lib-version 2.6)
(set-logic QF_S)
(set-info :source |
Generated by: Murphy Berzish, Mitja Kulczynski, Federico Mora, Florin Manea, Joel Day, Dirk Nowotka, Vijay Ganesh, Zhengyang Lu
Generated on: 2020-10-01
Description: Translated from a collection of real-world regex queries, AutomataArk, collected by Loris D’Antoni and Fang Wang: https://github.com/lorisdanto/automatark
Application: Evaluate solvers on real-world regex queries
Target solver: Z3str3RE, CVC4, OSTRICH, Z3seq, Z3str3, Z3-Trau
Publications: Berzish, M., Kulczynski, M., Mora, F., Manea, F., Day, J. D., Nowotka, D., & Ganesh, V. (2021, July). An SMT solver for regular expressions and linear arithmetic over string length. In CAV 2021.
|)
(set-info :license "https://creativecommons.org/licenses/by/4.0/")
(set-info :category "industrial")
(set-info :status unsat)

(declare-const X String)
(assert (str.in_re X (re.++ (re.union (re.++ (str.to_re "0") ((_ re.loop 7 7) (re.range "0" "9"))) (re.++ (re.union (str.to_re "AC") (str.to_re "BR") (str.to_re "FC") (str.to_re "GE") (str.to_re "GN") (str.to_re "GS") (str.to_re "IC") (str.to_re "IP") (str.to_re "LP") (str.to_re "NA") (str.to_re "NF") (str.to_re "NI") (str.to_re "NL") (str.to_re "NO") (str.to_re "NP") (str.to_re "NR") (str.to_re "NZ") (str.to_re "OC") (str.to_re "RC") (str.to_re "SA") (str.to_re "SC") (str.to_re "SF") (str.to_re "SI") (str.to_re "SL") (str.to_re "SO") (str.to_re "SP") (str.to_re "SR") (str.to_re "SZ") (str.to_re "ZC") (str.to_re "R")) ((_ re.loop 6 6) (re.range "0" "9")))) (str.to_re "\u{a}"))))
(assert (not (str.in_re X (re.++ (str.to_re "Host:") (re.* re.allchar) (str.to_re "c=") (re.* (re.union (str.to_re "\u{a}") (str.to_re "\u{d}"))) (str.to_re "KeyloggerHost:www.trackhits.cc\u{a}")))))
(assert (str.in_re X (re.++ (str.to_re "\u{a}") (re.opt (re.++ (re.union (re.++ (re.union (str.to_re "h") (str.to_re "H")) (re.union (str.to_re "t") (str.to_re "T")) (re.union (str.to_re "t") (str.to_re "T")) (re.union (str.to_re "p") (str.to_re "P")) (re.opt (re.union (str.to_re "s") (str.to_re "S")))) (re.++ (re.union (str.to_re "f") (str.to_re "F")) (re.union (str.to_re "t") (str.to_re "T")) (re.union (str.to_re "p") (str.to_re "P")))) (str.to_re "://"))) (re.opt (re.++ (re.+ (re.union (str.to_re ".") (str.to_re "-") (re.range "0" "9") (re.range "A" "Z") (re.range "a" "z") (str.to_re "_"))) (re.* (re.++ (str.to_re ":") (re.+ (re.union (str.to_re ".") (str.to_re "&") (str.to_re "%") (str.to_re "$") (str.to_re "-") (re.range "0" "9") (re.range "A" "Z") (re.range "a" "z") (str.to_re "_"))))) (str.to_re "@"))) (re.union (re.++ (re.+ (re.union (str.to_re "(") (str.to_re ")") (str.to_re "<") (str.to_re ">") (str.to_re "\u{5c}") (str.to_re "\u{22}") (str.to_re ".") (str.to_re "[") (str.to_re "]") (str.to_re ",") (str.to_re "@") (str.to_re ";") (str.to_re ":") (str.to_re " ") (str.to_re "\u{9}") (str.to_re "\u{a}") (str.to_re "\u{c}") (str.to_re "\u{d}"))) (re.* (re.++ (str.to_re ".") (re.+ (re.union (str.to_re "(") (str.to_re ")") (str.to_re "<") (str.to_re ">") (str.to_re "\u{5c}") (str.to_re "\u{22}") (str.to_re ".") (str.to_re "[") (str.to_re "]") (str.to_re ",") (str.to_re "@") (str.to_re ";") (str.to_re ":") (str.to_re " ") (str.to_re "\u{9}") (str.to_re "\u{a}") (str.to_re "\u{c}") (str.to_re "\u{d}"))))) (str.to_re ".") ((_ re.loop 2 4) (re.union (re.range "a" "z") (re.range "A" "Z")))) (re.++ ((_ re.loop 3 3) (re.++ (re.union (re.++ (re.opt (re.union (str.to_re "0") (str.to_re "1"))) ((_ re.loop 1 2) (re.range "0" "9"))) (re.++ (str.to_re "2") (re.range "0" "4") (re.range "0" "9")) (re.++ (str.to_re "25") (re.range "0" "5"))) (str.to_re "."))) (re.union (re.++ (re.opt (re.union (str.to_re "0") (str.to_re "1"))) ((_ re.loop 1 2) (re.range "0" "9"))) (re.++ (str.to_re "2") (re.range "0" "4") (re.range "0" "9")) (re.++ (str.to_re "25") (re.range "0" "5"))))) (re.opt (re.++ (str.to_re ":") (re.union (re.++ (str.to_re "6553") (re.range "0" "5")) (re.++ (str.to_re "655") (re.range "0" "2") (re.range "0" "9")) (re.++ (str.to_re "65") (re.range "0" "4") ((_ re.loop 2 2) (re.range "0" "9"))) (re.++ (str.to_re "6") (re.range "0" "4") ((_ re.loop 3 3) (re.range "0" "9"))) (re.++ (re.range "1" "5") ((_ re.loop 4 4) (re.range "0" "9"))) (re.++ (re.range "1" "9") ((_ re.loop 0 3) (re.range "0" "9"))) (str.to_re "0")))) (re.opt (re.++ (re.* (re.++ (str.to_re "/") (re.comp (str.to_re "/")) (re.* (re.union (str.to_re ".") (str.to_re ",") (str.to_re "?") (str.to_re "'") (str.to_re "\u{5c}") (str.to_re "/") (str.to_re "+") (str.to_re "&") (str.to_re "%") (str.to_re "$") (str.to_re "#") (str.to_re "=") (str.to_re "~") (str.to_re "_") (str.to_re "-") (str.to_re "@") (re.range "0" "9") (re.range "A" "Z") (re.range "a" "z") (str.to_re "_"))))) (re.union (str.to_re ".") (str.to_re ",") (str.to_re "?") (str.to_re "\u{22}") (str.to_re "'") (str.to_re "(") (str.to_re ")") (str.to_re "[") (str.to_re "]") (str.to_re "!") (str.to_re ";") (str.to_re "<") (str.to_re ">") (str.to_re "{") (str.to_re "}") (re.range "\u{7f}" "\u{ff}") (str.to_re " ") (str.to_re "\u{9}") (str.to_re "\u{a}") (str.to_re "\u{c}") (str.to_re "\u{d}")))))))
(check-sat)

(exit)
